Instance name:    bar-n100-6.txt
Authors:          PDPTW Solver
Date:             2026-01-16
Reference:        LNS with SA/RTR
Solution: 0;3;798.000;60.00 s
Route 1 :  22 37 47 72 97 4 29 54 87 1 79 18 8 68 51 7 57 5 17 2 67 45 95 55 35 14 85 64 52 10 58 60 24 50 100 74
Route 2 :  31 32 81 38 82 88 41 16 66 12 91 62 21 42 19 71 6 92 56 69 23 26 27 77 73 13 36 63 76 49 39 99 89 86
Route 3 :  20 43 70 93 40 25 34 48 30 90 98 84 28 44 75 80 9 94 11 78 3 59 61 53 15 33 83 46 65 96
